
Gurobi 11.0.3 (linux64) logging started Tue Apr 14 05:55:22 2026

Set parameter LogFile to value "tree/results/wine/wine_depth-3_run-4/Full MIP/LogFile_FullModel.txt"
Gurobi Optimizer version 11.0.3 build v11.0.3rc0 (linux64 - "CentOS Linux 7 (Core)")

CPU model: Intel(R) Xeon(R) Platinum 8260 CPU @ 2.40GHz, instruction set [SSE2|AVX|AVX2|AVX512]
Thread count: 96 physical cores, 192 logical processors, using up to 32 threads

Optimize a model with 11085 rows, 7777 columns and 149401 nonzeros
Model fingerprint: 0x4909c3fe
Model has 1064 general constraints
Variable types: 4470 continuous, 3307 integer (3307 binary)
Coefficient statistics:
  Matrix range     [6e-04, 1e+04]
  Objective range  [8e-03, 1e+04]
  Bounds range     [1e+00, 4e+02]
  RHS range        [1e-04, 8e+02]

User MIP start produced solution with objective 0.969925 (0.06s)
Loaded user MIP start with objective 0.969925

Presolve added 1056 rows and 3191 columns
Presolve time: 0.23s
Presolved: 12141 rows, 10968 columns, 155758 nonzeros
Presolved model has 3192 SOS constraint(s)
Variable types: 4469 continuous, 6499 integer (6499 binary)
Root relaxation presolved: 12133 rows, 10960 columns, 155758 nonzeros

Deterministic concurrent LP optimizer: primal and dual simplex
Showing primal log only...

Concurrent spin time: 0.14s

Solved with primal simplex

Root relaxation: objective 1.000000e+00, 2804 iterations, 1.98 seconds (1.16 work units)
Total elapsed time = 5.20s (DegenMoves)

    Nodes    |    Current Node    |     Objective Bounds      |     Work
 Expl Unexpl |  Obj  Depth IntInf | Incumbent    BestBd   Gap | It/Node Time

     0     0    1.00000    0  407    0.96992    1.00000  3.10%     -    5s
     0     2    1.00000    0  407    0.96992    1.00000  3.10%     -   10s
     7    16    1.00000    3  408    0.96992    1.00000  3.10%   191   16s
    15    32    1.00000    4  400    0.96992    1.00000  3.10%   409   23s
    31    64    1.00000    5  400    0.96992    1.00000  3.10%   952   28s
    63    96    1.00000    6  401    0.96992    1.00000  3.10%   555   55s
H   89    96                       0.9774436    1.00000  2.31%   578   55s
    95   128    1.00000    7  255    0.97744    1.00000  2.31%   609   71s
H   96   128                       0.9924812    1.00000  0.76%   603   71s
   159   192    1.00000    9  255    0.99248    1.00000  0.76%   406  133s
   191   225    1.00000   10  599    0.99248    1.00000  0.76%   376  146s
   224   325    1.00000   11  599    0.99248    1.00000  0.76%   703  399s
   324   651    1.00000   13  661    0.99248    1.00000  0.76%   581  446s
H  337   651                       1.0000000    1.00000  0.00%   603  446s

Explored 650 nodes (605685 simplex iterations) in 446.20 seconds (426.32 work units)
Thread count was 32 (of 192 available processors)

Solution count 4: 1 0.992481 0.977444 0.969925 

Optimal solution found (tolerance 1.00e-04)
Best objective 1.000000000000e+00, best bound 1.000000000000e+00, gap 0.0000%

User-callback calls 331809, time in user-callback 3.15 sec
